&GLOBAL
  PROJECT     GW-2D
  PRINT_LEVEL MEDIUM
  RUN_TYPE ENERGY
&END GLOBAL
&FORCE_EVAL
  METHOD Quickstep
  &DFT
    BASIS_SET_FILE_NAME /scratch/hpc-prf-metdyn/eprop2d1_Jan/39_CN_Zahra_Thomas/BASIS_AUG_MOLOPT/BASIS_GTH_MOLOPT_AUG_for_excited_states
    BASIS_SET_FILE_NAME /scratch/hpc-prf-metdyn/eprop2d1_Jan/39_CN_Zahra_Thomas/BASIS_AUG_MOLOPT/BASIS_GTH_MOLOPT_AUG_for_excited_states_RI
    SORT_BASIS EXP
    POTENTIAL_FILE_NAME GTH_POTENTIALS
    CHARGE 0
    &MGRID
      CUTOFF  400
      REL_CUTOFF  50
    &END MGRID
    &QS
      METHOD GPW
      EPS_DEFAULT 1.0E-15
      EPS_PGF_ORB 1.0E-15
    &END QS
    &SCF
      SCF_GUESS RESTART
      EPS_SCF 1.0E-7
      MAX_SCF 500
      &PRINT
         &RESTART ON
         &END
      &END     
      &MIXING
          METHOD BROYDEN_MIXING
          ALPHA 0.1
          BETA 1.5
          NBROYDEN 8
      &END
    &END SCF
    &XC
      &XC_FUNCTIONAL PBE
      &END XC_FUNCTIONAL
    &END XC
       &KPOINTS
       SCHEME MONKHORST-PACK 12 12 24
       PARALLEL_GROUP_SIZE   -1
       &END KPOINTS
  &END DFT
  &PROPERTIES
    &BANDSTRUCTURE
      &DOS
      &END
      &GW
        NUM_TIME_FREQ_POINTS         10
        MEMORY_PER_PROC              30
        EPS_FILTER               1.0E-8
        CUTOFF_RADIUS_RI              5
        REGULARIZATION_RI          0.01
      &END
      &BANDSTRUCTURE_PATH
        SPECIAL_POINT A  0.0    0.0    0.0
        SPECIAL_POINT A  0.5    0.0    0.0
        SPECIAL_POINT A  0.3333 0.3333 0.0
        SPECIAL_POINT A  0.0    0.0    0.0
        SPECIAL_POINT A  0.0    0.0    0.5
        SPECIAL_POINT A  0.5    0.0    0.5
        SPECIAL_POINT A  0.3333 0.3333 0.5
        SPECIAL_POINT A  0.0    0.0    0.5
        SPECIAL_POINT A  0.5    0.0    0.5
        SPECIAL_POINT A  0.5    0.0    0.0
        SPECIAL_POINT A  0.3333 0.3333 0.0
        SPECIAL_POINT A  0.3333 0.3333 0.5
        NPOINTS 20
      &END
    &END
  &END PROPERTIES
  &SUBSYS
    &CELL
      ABC                 7.13390 7.13390 3.65604
      ALPHA_BETA_GAMMA    90 90 120
        PERIODIC XYZ
    &END CELL
    &COORD
      C      4.85105503    1.32247562    15.00000000
      C      2.29060211    1.32247562    15.00000000
      C      3.57082857    3.53989290    15.00000000
      C      2.36058671    5.48612304    15.00000000
      C     -0.00000357    1.39746075    15.00000000
      C     -2.36059385    5.48612304    15.00000000
      N      3.57082500    2.06161677    15.00000000
      N      1.22201487    6.17287645    15.00000000
      N      1.16403539    2.04011617    15.00000000
      N     -2.38605026    4.15670802    15.00000000
      N      2.38605026    4.15670802    15.00000000
      N     -1.16403539    2.04011617    15.00000000
      N     -1.22201487    6.17287645    15.00000000
      N      0.00000000    0.00000000    15.00000000
    &END COORD
    &KIND C
      BASIS_SET ORB    aug-SZV-MOLOPT-GTH
      BASIS_SET RI_AUX RI_aug-SZV-MOLOPT-GTH_N_RI_031_s_p_d_f_g_h_i_5_3_2_1_0_0_0_error_1.8e-05
      POTENTIAL GTH-PBE-q4
    &END KIND
    &KIND N
      BASIS_SET ORB    aug-SZV-MOLOPT-GTH
      BASIS_SET RI_AUX RI_aug-SZV-MOLOPT-GTH_N_RI_027_s_p_d_f_g_h_i_4_2_2_1_0_0_0_error_4.9e-06
      POTENTIAL GTH-PBE-q5
    &END KIND
  &END SUBSYS
&END FORCE_EVAL


